reinit: Reading from standard input
reinit: Dumped input in INPUT_TMP.19265
************************** Dump of input data file ****************************
SystemName       bcc Fe ferro GGA   # Descriptive name of the system
SystemLabel            Fe           # Short name for naming files
# Species and atoms
NumberOfSpecies        1
NumberOfAtoms          2
%block ChemicalSpeciesLabel
  1  26  Fe
%endblock ChemicalSpeciesLabel
# Basis
PAO.BasisSize         DZP
# Lattice and geometry
LatticeConstant       2.87 Ang
%block LatticeVectors
 1.00000   0.000000  0.000000
 0.00000   1.000000  0.000000
 0.0000    0.000000  1.000000
%endblock LatticeVectors
# Atomic coordinates
AtomicCoordinatesFormat     ScaledCartesian
%block AtomicCoordinatesAndAtomicSpecies
  0.000000000000    0.000000000000    0.000000000000  1
  0.500000000000    0.500000000000    0.500000000000  1
%endblock AtomicCoordinatesAndAtomicSpecies
KgridCutoff          15. Ang
# SCF options
DM.MixingWeight       0.1           # New DM amount for next SCF cycle
DM.Tolerance          1.d-3         # Tolerance in maximum difference
DM.NumberPulay         3
SolutionMethod        diagon        # OrderN or Diagon
ElectronicTemperature  25 meV       # Temp. for Fermi smearing
xc.functional         GGA           # Exchange-correlation functional
xc.authors            PBE           # Exchange-correlation version
SpinPolarized         true          # Logical parameters are: yes or no
MeshCutoff           2000. Ry        # Mesh cutoff. real space mesh
# Output options
CDF.Save              true
WriteDMHS.NetCDF      true
SaveHS                true
************************** End of input data file *****************************

reinit: -----------------------------------------------------------------------
reinit: System Name: bcc Fe ferro GGA
reinit: -----------------------------------------------------------------------
reinit: System Label: Fe
reinit: -----------------------------------------------------------------------
Siesta Version: siesta-4.1--719
Architecture  : x86_64-unknown-linux-gnu--Gfortran
Compiler flags: mpif90 -g -O2
PP flags      : -DMPI -DFC_HAVE_FLUSH -DFC_HAVE_ABORT -DCDF -DGRID_DP -DPHI_GRID_SP -DNCDF -DNCDF_4
Libraries     : -lnetcdff -lnetcdf -lpthread -lscalapack -lblacsF77init-openmpi -lblacsCinit-openmpi -lblacs-openmpi /usr/lib/lapack/liblapack.a -lblas
PARALLEL version
NetCDF support
NetCDF-4 support

>> Start of run:   8-AUG-2017  14:48:04

initatom: Reading input for the pseudopotentials and atomic orbitals ----------
Species number:   1 Atomic number:   26 Label: Fe

Ground state valence configuration:   4s02  3d06
Reading pseudopotential information in formatted form from Fe.psf

Pseudopotential generated from a relativistic atomic calculation
There are spin-orbit pseudopotentials available
Spin-orbit interaction is not included in this calculation

Valence configuration for pseudopotential generation:
4s( 1.00) rc: 2.00
4p( 0.00) rc: 2.00
3d( 7.00) rc: 2.00
4f( 0.00) rc: 2.00
For Fe, standard SIESTA heuristics set lmxkb to 3
 (one more than the basis l, including polarization orbitals).
Use PS.lmax or PS.KBprojectors blocks to override.

<basis_specs>
Fe                   Z=  26    Mass=  55.850        Charge= 0.17977+309
Lmxo=2 Lmxkb= 3    BasisType=split      Semic=F
L=0  Nsemic=0  Cnfigmx=4
          n=1  nzeta=2  polorb=1
            splnorm:   0.15000
               vcte:    0.0000
               rinn:    0.0000
               qcoe:    0.0000
               qyuk:    0.0000
               qwid:   0.10000E-01
                rcs:    0.0000      0.0000
            lambdas:    1.0000      1.0000
L=1  Nsemic=0  Cnfigmx=4
L=2  Nsemic=0  Cnfigmx=3
          n=1  nzeta=2  polorb=0
            splnorm:   0.15000
               vcte:    0.0000
               rinn:    0.0000
               qcoe:    0.0000
               qyuk:    0.0000
               qwid:   0.10000E-01
                rcs:    0.0000      0.0000
            lambdas:    1.0000      1.0000
L=0  Nkbl=1  erefs: 0.17977+309
L=1  Nkbl=1  erefs: 0.17977+309
L=2  Nkbl=1  erefs: 0.17977+309
L=3  Nkbl=1  erefs: 0.17977+309
</basis_specs>

atom: Called for Fe                    (Z =  26)

read_vps: Pseudopotential generation method:
read_vps: ATM3      Troullier-Martins
Total valence charge:    8.00000

read_vps: Pseudopotential includes a core correction:
read_vps: Pseudo-core for xc-correction

xc_check: Exchange-correlation functional:
xc_check: GGA Perdew, Burke & Ernzerhof 1996
V l=0 = -2*Zval/r beyond r=  2.7993
V l=1 = -2*Zval/r beyond r=  2.7993
V l=2 = -2*Zval/r beyond r=  2.7993
V l=3 = -2*Zval/r beyond r=  2.7993
All V_l potentials equal beyond r=  1.9726
This should be close to max(r_c) in ps generation
All pots = -2*Zval/r beyond r=  2.7993
Using large-core scheme for Vlocal

atom: Estimated core radius    2.79930
atom: Maximum radius for 4*pi*r*r*local-pseudopot. charge    3.09372
atom: Maximum radius for r*vlocal+2*Zval:    2.83451
GHOST: No ghost state for L =  0
GHOST: No ghost state for L =  1
GHOST: No ghost state for L =  2
GHOST: No ghost state for L =  3

KBgen: Kleinman-Bylander projectors:
   l= 0   rc=  2.047986   el= -0.311923   Ekb=  4.029271   kbcos=  0.247383
   l= 1   rc=  2.047986   el= -0.063743   Ekb=  3.155950   kbcos=  0.157501
   l= 2   rc=  2.022544   el= -0.281111   Ekb=-12.350059   kbcos= -0.653351
   l= 3   rc=  2.047986   el=  0.003178   Ekb= -1.600425   kbcos= -0.005940

KBgen: Total number of  Kleinman-Bylander projectors:   16
atom: -------------------------------------------------------------------------

atom: SANKEY-TYPE ORBITALS:
atom: Selected multiple-zeta basis: split

SPLIT: Orbitals with angular momentum L= 0

SPLIT: Basis orbitals for state 4s

SPLIT: PAO cut-off radius determined from an
SPLIT: energy shift=  0.020000 Ry

   izeta = 1
                 lambda =    1.000000
                     rc =    6.799774
                 energy =   -0.294010
                kinetic =    0.301388
    potential(screened) =   -0.595398
       potential(ionic) =   -5.854038

   izeta = 2
                 rmatch =    6.387791
              splitnorm =    0.150000
                 energy =   -0.248820
                kinetic =    0.450170
    potential(screened) =   -0.698990
       potential(ionic) =   -6.319130

SPLIT: Orbitals with angular momentum L= 2

SPLIT: Basis orbitals for state 3d

SPLIT: PAO cut-off radius determined from an
SPLIT: energy shift=  0.020000 Ry

   izeta = 1
                 lambda =    1.000000
                     rc =    4.124234
                 energy =   -0.262775
                kinetic =    8.883013
    potential(screened) =   -9.145788
       potential(ionic) =  -18.099999

   izeta = 2
                 rmatch =    2.320685
              splitnorm =    0.150000
                 energy =    0.078117
                kinetic =   12.159866
    potential(screened) =  -12.081749
       potential(ionic) =  -21.731850

POLgen: Perturbative polarization orbital with L=  1

POLgen: Polarization orbital for state 4s

   izeta = 1
                     rc =    6.799774
                 energy =    0.008088
                kinetic =    0.570121
    potential(screened) =   -0.562033
       potential(ionic) =   -5.421934
atom: Total number of Sankey-type orbitals: 15

atm_pop: Valence configuration (for local Pseudopot. screening):
 4s( 2.00)
 4p( 0.00)
 3d( 6.00)
Vna: chval, zval:    8.00000   8.00000

Vna:  Cut-off radius for the neutral-atom potential:   6.799774
comcore: Pseudo-core radius Rcore=  3.826224

atom: _________________________________________________________________________

prinput: Basis input ----------------------------------------------------------

PAO.BasisType split

%block ChemicalSpeciesLabel
    1   26 Fe                      # Species index, atomic number, species label
%endblock ChemicalSpeciesLabel

%block PAO.Basis                 # Define Basis set
Fe                    2                    # Species label, number of l-shells
 n=4   0   2 P   1                   # n, l, Nzeta, Polarization, NzetaPol
   6.800      6.388
   1.000      1.000
 n=3   2   2                         # n, l, Nzeta
   4.124      2.321
   1.000      1.000
%endblock PAO.Basis

prinput: ----------------------------------------------------------------------

Dumping basis to NetCDF file Fe.ion.nc
coor:   Atomic-coordinates input format  =     Cartesian coordinates
coor:                                          (in units of alat)

siesta: Atomic coordinates (Bohr) and species
siesta:      0.00000   0.00000   0.00000  1        1
siesta:      2.71176   2.71176   2.71176  1        2

siesta: System type = bulk

initatomlists: Number of atoms, orbitals, and projectors:      2    30    32

siesta: ******************** Simulation parameters ****************************
siesta:
siesta: The following are some of the parameters of the simulation.
siesta: A complete list of the parameters used, including default values,
siesta: can be found in file out.fdf
siesta:
redata: Spin configuration                          = collinear
redata: Number of spin components                   = 2
redata: Time-Reversal Symmetry                      = T
redata: Spin-spiral                                 = F
redata: Long output                                 =   F
redata: Number of Atomic Species                    =        1
redata: Charge density info will appear in .RHO file
redata: Write Mulliken Pop.                         = NO
redata: Mesh Cutoff                                 =  2000.0000 Ry
redata: Net charge of the system                    =     0.0000 |e|
redata: Min. number of SCF Iter                     =        0
redata: Max. number of SCF Iter                     =       50
redata: SCF mix quantity                            = Hamiltonian
redata: Mix DM or H after convergence               =   F
redata: Recompute H after scf cycle                 =   F
redata: Mix DM in first SCF step                    =   T
redata: Write Pulay info on disk                    =   F
redata: New DM Mixing Weight                        =     0.1000
redata: New DM Occupancy tolerance                  = 0.000000000001
redata: No kicks to SCF
redata: DM Mixing Weight for Kicks                  =     0.5000
redata: Require Harris convergence for SCF          =   F
redata: Harris energy tolerance for SCF             =     0.000100 eV
redata: Require DM convergence for SCF              =   T
redata: DM tolerance for SCF                        =     0.0010
redata: Require EDM convergence for SCF             =   F
redata: EDM tolerance for SCF                       =     0.001000 eV
redata: Require H convergence for SCF               =   T
redata: Hamiltonian tolerance for SCF               =     0.001000 eV
redata: Require (free) Energy convergence for SCF   =   F
redata: (free) Energy tolerance for SCF             =     0.000100 eV
redata: Antiferro initial spin density              =   F
redata: Using Saved Data (generic)                  =   F
redata: Use continuation files for DM               =   F
redata: Neglect nonoverlap interactions             =   F
redata: Method of Calculation                       = Diagonalization
redata: Divide and Conquer                          =   T
redata: Electronic Temperature                      =   290.1109 K
redata: Fix the spin of the system                  =   F
redata: Dynamics option                             = Single-point calculation
mix.SCF: Pulay mixing                            = Pulay
mix.SCF:    Variant                              = stable
mix.SCF:    History steps                        = 3
mix.SCF:    Linear mixing weight                 =     0.100000
mix.SCF:    Mixing weight                        =     0.100000
mix.SCF:    SVD condition                        = 0.1000E-07
mix.SCF: Spin-component mixing                   all
redata: Save all siesta data in one NC              =   T
redata: NC compression level                        =        0
redata: ***********************************************************************

%block SCF.Mixers
  Pulay
%endblock SCF.Mixers

%block SCF.Mixer.Pulay
  # Mixing method
  method pulay
  variant stable

  # Mixing options
  weight 0.1000
  weight.linear 0.1000
  history 3
%endblock SCF.Mixer.Pulay

DM_history_depth set to one: no extrapolation allowed by default for geometry relaxation
Size of DM history Fstack: 1
Total number of electrons:    16.000000
Total ionic charge:    16.000000

* ProcessorY, Blocksize:    2   8

* Orbital distribution balance (max,min):     8     6

 Kpoints in:          726 . Kpoints trimmed:          666

siesta: k-grid: Number of k-points =   666
siesta: k-grid: Cutoff (effective) =    15.785 Ang
siesta: k-grid: Supercell and displacements
siesta: k-grid:    0  11   0      0.000
siesta: k-grid:    0   0  11      0.000
siesta: k-grid:   11   0   0      0.000

superc: Internal auxiliary supercell:     5 x     5 x     5  =     125
superc: Number of atoms, orbitals, and projectors:    250   3750   4000

                        Single-point calculation

superc: Internal auxiliary supercell:     5 x     5 x     5  =     125
superc: Number of atoms, orbitals, and projectors:    250   3750   4000

outcell: Unit cell vectors (Ang):
        2.870000    0.000000    0.000000
        0.000000    2.870000    0.000000
        0.000000    0.000000    2.870000

outcell: Cell vector modules (Ang)   :    2.870000    2.870000    2.870000
outcell: Cell angles (23,13,12) (deg):     90.0000     90.0000     90.0000
outcell: Cell volume (Ang**3)        :     23.6399
<dSpData1D:S at geom step 0
  <sparsity:sparsity for geom step 0
    nrows_g=30 nrows=8 sparsity=9.0511 nnzs=8146, refcount: 7>
  <dData1D:(new from dSpData1D) n=8146, refcount: 1>
refcount: 1>
new_DM -- step:     1
Initializing Density Matrix...
DM filled with atomic data:
<dSpData2D:DM initialized from atoms
  <sparsity:sparsity for geom step 0
    nrows_g=30 nrows=8 sparsity=9.0511 nnzs=8146, refcount: 8>
  <dData2D:DM n=8146 m=2, refcount: 1>
refcount: 1>

initDM: Initial spin polarization (Qup-Qdown) =    8.000000

No. of atoms with KB's overlaping orbs in proc 0. Max # of overlaps:      27     215
New grid distribution:   1
           1       1:   40    1:   20    1:   20
           2       1:   40    1:   20   21:   40
           3       1:   40   21:   40    1:   20
           4       1:   40   21:   40   21:   40

InitMesh: MESH =    80 x    80 x    80 =      512000
InitMesh: (bp) =    40 x    40 x    40 =       64000
InitMesh: Mesh cutoff (required, used) =  2000.000  2147.424 Ry
ExtMesh (bp) on 0 =   244 x   224 x   224 =    12242944
New grid distribution:   2
           1       1:   40    1:   20    1:   20
           2       1:   40    1:   20   21:   40
           3       1:   40   21:   40    1:   20
           4       1:   40   21:   40   21:   40
New grid distribution:   3
           1       1:   40    1:   20    1:   20
           2       1:   40    1:   20   21:   40
           3       1:   40   21:   40    1:   20
           4       1:   40   21:   40   21:   40
Setting up quadratic distribution...
ExtMesh (bp) on 0 =   244 x   224 x   224 =    12242944
PhiOnMesh: Number of (b)points on node 0 =                16000
PhiOnMesh: nlist on node 0 =              1666195

stepf: Fermi-Dirac step function

siesta: Program's energy decomposition (eV):
siesta: Ebs     =      -146.476158
siesta: Eions   =      1426.179291
siesta: Ena     =        53.083791
siesta: Ekin    =      1614.459706
siesta: Enl     =      -998.986099
siesta: Eso     =         0.000000
siesta: Eldau   =         0.000000
siesta: DEna    =       -16.958817
siesta: DUscf   =         1.718785
siesta: DUext   =         0.000000
siesta: Exc     =      -819.077724
siesta: eta*DQ  =         0.000000
siesta: Emadel  =         0.000000
siesta: Emeta   =         0.000000
siesta: Emolmec =         0.000000
siesta: Ekinion =         0.000000
siesta: Eharris =     -1588.626605
siesta: Etot    =     -1591.939648
siesta: FreeEng =     -1591.943979

SCF Convergence by DM+H criterion
max |DM_out - DM_in|         :     0.0001646599
max |H_out - H_in|      (eV) :     0.0003104041
SCF cycle converged after 26 iterations

Using DM_out to compute the final energy and forces
No. of atoms with KB's overlaping orbs in proc 0. Max # of overlaps:      27     215

siesta: E_KS(eV) =            -1592.8932

siesta: E_KS - E_eggbox =     -1592.8932

siesta: Atomic forces (eV/Ang):
   Tot    0.000000   -0.000000    0.000000
   Max    0.000000
   Res    0.000000    sqrt( Sum f_i^2 / 3N )
   Max    0.000000    constrained

Stress-tensor-Voigt (kbar):      -56.74      -56.74      -56.74        0.00        0.00        0.00
(Free)E + p*V (eV/cell)    -1592.0605
Target enthalpy (eV/cell)    -1592.8976

siesta: Program's energy decomposition (eV):
siesta: Ebs     =      -168.931693
siesta: Eions   =      1426.179291
siesta: Ena     =        53.083791
siesta: Ekin    =      1537.936597
siesta: Enl     =      -943.478814
siesta: Eso     =         0.000000
siesta: Eldau   =         0.000000
siesta: DEna    =        -6.145117
siesta: DUscf   =         0.258127
siesta: DUext   =         0.000000
siesta: Exc     =      -808.368457
siesta: eta*DQ  =         0.000000
siesta: Emadel  =         0.000000
siesta: Emeta   =         0.000000
siesta: Emolmec =         0.000000
siesta: Ekinion =         0.000000
siesta: Eharris =     -1592.893132
siesta: Etot    =     -1592.893164
siesta: FreeEng =     -1592.897599

siesta: Final energy (eV):
siesta:  Band Struct. =    -168.931693
siesta:       Kinetic =    1537.936597
siesta:       Hartree =     173.224641
siesta:       Eldau   =       0.000000
siesta:       Eso     =       0.000000
siesta:    Ext. field =       0.000000
siesta:   Exch.-corr. =    -808.368457
siesta:  Ion-electron =   -1675.857406
siesta:       Ion-ion =    -819.828538
siesta:       Ekinion =       0.000000
siesta:         Total =   -1592.893164
siesta:         Fermi =      -8.363978

siesta: Stress tensor (static) (eV/Ang**3):
siesta:    -0.035411    0.000000    0.000000
siesta:     0.000000   -0.035411   -0.000000
siesta:     0.000000    0.000000   -0.035411

siesta: Cell volume =         23.639903 Ang**3

siesta: Pressure (static):
siesta:                Solid            Molecule  Units
siesta:           0.00038567          0.00038567  Ry/Bohr**3
siesta:           0.03541108          0.03541108  eV/Ang**3
siesta:          56.73542486         56.73542486  kBar
(Free)E+ p_basis*V_orbitals  =       -1591.391179
(Free)Eharris+ p_basis*V_orbitals  =       -1591.391148

siesta: Total spin polarization (Qup-Qdown) =    4.775510
>> End of run:   8-AUG-2017  14:51:29