reinit: Reading from standard input
reinit: Dumped input in INPUT_TMP.70927
************************** Dump of input data file ****************************
SystemName       bcc Fe ferro GGA   # Descriptive name of the system
SystemLabel            Fe           # Short name for naming files
# Species and atoms
NumberOfSpecies        1
NumberOfAtoms          1
%block ChemicalSpeciesLabel
  1  26  Fe
%endblock ChemicalSpeciesLabel
# Basis
PAO.BasisSize         DZP
PAO.EnergyShift 0.01 Ry
# Lattice and geometry
LatticeConstant       2.87 Ang
%block LatticeVectors
 1.00000   0.000000  0.000000
 0.00000   1.000000  0.000000
 0.50000   0.500000  0.500000
%endblock LatticeVectors
# Atomic coordinates
AtomicCoordinatesFormat     ScaledCartesian
%block AtomicCoordinatesAndAtomicSpecies
  0.000000000000    0.000000000000    0.000000000000  1
%endblock AtomicCoordinatesAndAtomicSpecies
KgridCutoff          50. Ang
# SCF options
DM.MixingWeight       0.1           # New DM amount for next SCF cycle
DM.Tolerance          1.d-3         # Tolerance in maximum difference
DM.NumberPulay         3
MaxSCFIterations 200
SolutionMethod        diagon        # OrderN or Diagon
ElectronicTemperature  10 meV       # Temp. for Fermi smearing
xc.functional         GGA           # Exchange-correlation functional
xc.authors            PBE           # Exchange-correlation version
SpinPolarized         true          # Logical parameters are: yes or no
MeshCutoff           2000. Ry        # Mesh cutoff. real space mesh
# Output options
CDF.Save              true
WriteDMHS.NetCDF      true
SaveHS                true
************************** End of input data file *****************************

reinit: -----------------------------------------------------------------------
reinit: System Name: bcc Fe ferro GGA
reinit: -----------------------------------------------------------------------
reinit: System Label: Fe
reinit: -----------------------------------------------------------------------
Siesta Version: siesta-4.1--719
Architecture  : x86_64-unknown-linux-gnu--Gfortran
Compiler flags: mpif90 -g -O2
PP flags      : -DMPI -DFC_HAVE_FLUSH -DFC_HAVE_ABORT -DCDF -DGRID_DP -DPHI_GRID_SP -DNCDF -DNCDF_4
Libraries     : -lnetcdff -lnetcdf -lpthread -lscalapack -lblacsF77init-openmpi -lblacsCinit-openmpi -lblacs-openmpi /usr/lib/lapack/liblapack.a -lblas
PARALLEL version
NetCDF support
NetCDF-4 support

>> Start of run:  16-AUG-2017  19:37:16

initatom: Reading input for the pseudopotentials and atomic orbitals ----------
Species number:   1 Atomic number:   26 Label: Fe

Ground state valence configuration:   4s02  3d06
Reading pseudopotential information in formatted form from Fe.psf

Pseudopotential generated from a relativistic atomic calculation
There are spin-orbit pseudopotentials available
Spin-orbit interaction is not included in this calculation

Valence configuration for pseudopotential generation:
4s( 1.00) rc: 2.05
4p( 0.00) rc: 2.07
3d( 7.00) rc: 2.00
4f( 0.00) rc: 2.26
For Fe, standard SIESTA heuristics set lmxkb to 3
 (one more than the basis l, including polarization orbitals).
Use PS.lmax or PS.KBprojectors blocks to override.

<basis_specs>
Fe                   Z=  26    Mass=  55.850        Charge= 0.17977+309
Lmxo=2 Lmxkb= 3    BasisType=split      Semic=F
L=0  Nsemic=0  Cnfigmx=4
          n=1  nzeta=2  polorb=1
            splnorm:   0.15000
               vcte:    0.0000
               rinn:    0.0000
               qcoe:    0.0000
               qyuk:    0.0000
               qwid:   0.10000E-01
                rcs:    0.0000      0.0000
            lambdas:    1.0000      1.0000
L=1  Nsemic=0  Cnfigmx=4
L=2  Nsemic=0  Cnfigmx=3
          n=1  nzeta=2  polorb=0
            splnorm:   0.15000
               vcte:    0.0000
               rinn:    0.0000
               qcoe:    0.0000
               qyuk:    0.0000
               qwid:   0.10000E-01
                rcs:    0.0000      0.0000
            lambdas:    1.0000      1.0000
L=0  Nkbl=1  erefs: 0.17977+309
L=1  Nkbl=1  erefs: 0.17977+309
L=2  Nkbl=1  erefs: 0.17977+309
L=3  Nkbl=1  erefs: 0.17977+309
</basis_specs>

atom: Called for Fe                    (Z =  26)

read_vps: Pseudopotential generation method:
read_vps: ATM3      Troullier-Martins
Total valence charge:    8.00000

read_vps: Pseudopotential includes a core correction:
read_vps: Pseudo-core for xc-correction

xc_check: Exchange-correlation functional:
xc_check: GGA Perdew, Burke & Ernzerhof 1996
V l=0 = -2*Zval/r beyond r=  2.7993
V l=1 = -2*Zval/r beyond r=  2.7993
V l=2 = -2*Zval/r beyond r=  2.7993
V l=3 = -2*Zval/r beyond r=  2.7993
All V_l potentials equal beyond r=  2.2353
This should be close to max(r_c) in ps generation
All pots = -2*Zval/r beyond r=  2.7993

VLOCAL1: 99.0% of the norm of Vloc inside      8.688 Ry
VLOCAL1: 99.9% of the norm of Vloc inside     19.800 Ry
atom: Maximum radius for 4*pi*r*r*local-pseudopot. charge    2.69627
atom: Maximum radius for r*vlocal+2*Zval:    2.37944
GHOST: No ghost state for L =  0
GHOST: No ghost state for L =  1
GHOST: No ghost state for L =  2
GHOST: No ghost state for L =  3

KBgen: Kleinman-Bylander projectors:
   l= 0   rc=  3.055283   el= -0.311923   Ekb=  3.942777   kbcos=  0.245316
   l= 1   rc=  3.132630   el= -0.063750   Ekb=  2.390099   kbcos=  0.181526
   l= 2   rc=  2.764525   el= -0.281111   Ekb=-12.608297   kbcos= -0.653945
   l= 3   rc=  3.419094   el=  0.003178   Ekb= -0.959117   kbcos= -0.008251

KBgen: Total number of  Kleinman-Bylander projectors:   16
atom: -------------------------------------------------------------------------

atom: SANKEY-TYPE ORBITALS:
atom: Selected multiple-zeta basis: split

SPLIT: Orbitals with angular momentum L= 0

SPLIT: Basis orbitals for state 4s

SPLIT: PAO cut-off radius determined from an
SPLIT: energy shift=  0.010000 Ry

   izeta = 1
                 lambda =    1.000000
                     rc =    7.514923
                 energy =   -0.303174
                kinetic =    0.277125
    potential(screened) =   -0.580300
       potential(ionic) =   -5.739390

   izeta = 2
                 rmatch =    6.631885
              splitnorm =    0.150000
                 energy =   -0.257373
                kinetic =    0.433308
    potential(screened) =   -0.690681
       potential(ionic) =   -6.272516

SPLIT: Orbitals with angular momentum L= 2

SPLIT: Basis orbitals for state 3d

SPLIT: PAO cut-off radius determined from an
SPLIT: energy shift=  0.010000 Ry

   izeta = 1
                 lambda =    1.000000
                     rc =    4.673382
                 energy =   -0.271933
                kinetic =    8.682289
    potential(screened) =   -8.954222
       potential(ionic) =  -17.826160

   izeta = 2
                 rmatch =    2.409367
              splitnorm =    0.150000
                 energy =    0.040586
                kinetic =   11.952820
    potential(screened) =  -11.912234
       potential(ionic) =  -21.536609

POLgen: Perturbative polarization orbital with L=  1

POLgen: Polarization orbital for state 4s

   izeta = 1
                     rc =    7.514923
                 energy =   -0.016809
                kinetic =    0.519013
    potential(screened) =   -0.535822
       potential(ionic) =   -5.257488
atom: Total number of Sankey-type orbitals: 15

atm_pop: Valence configuration (for local Pseudopot. screening):
 4s( 2.00)
 4p( 0.00)
 3d( 6.00)
Vna: chval, zval:    8.00000   8.00000

Vna:  Cut-off radius for the neutral-atom potential:   7.514923
comcore: Pseudo-core radius Rcore=  3.826224

atom: _________________________________________________________________________

prinput: Basis input ----------------------------------------------------------

PAO.BasisType split

%block ChemicalSpeciesLabel
    1   26 Fe                      # Species index, atomic number, species label
%endblock ChemicalSpeciesLabel

%block PAO.Basis                 # Define Basis set
Fe                    2                    # Species label, number of l-shells
 n=4   0   2 P   1                   # n, l, Nzeta, Polarization, NzetaPol
   7.515      6.632
   1.000      1.000
 n=3   2   2                         # n, l, Nzeta
   4.673      2.409
   1.000      1.000
%endblock PAO.Basis

prinput: ----------------------------------------------------------------------

Dumping basis to NetCDF file Fe.ion.nc
coor:   Atomic-coordinates input format  =     Cartesian coordinates
coor:                                          (in units of alat)

siesta: Atomic coordinates (Bohr) and species
siesta:      0.00000   0.00000   0.00000  1        1

siesta: System type = bulk

initatomlists: Number of atoms, orbitals, and projectors:      1    15    16

siesta: ******************** Simulation parameters ****************************
siesta:
siesta: The following are some of the parameters of the simulation.
siesta: A complete list of the parameters used, including default values,
siesta: can be found in file out.fdf
siesta:
redata: Spin configuration                          = collinear
redata: Number of spin components                   = 2
redata: Time-Reversal Symmetry                      = T
redata: Spin-spiral                                 = F
redata: Long output                                 =   F
redata: Number of Atomic Species                    =        1
redata: Charge density info will appear in .RHO file
redata: Write Mulliken Pop.                         = NO
redata: Mesh Cutoff                                 =  2000.0000 Ry
redata: Net charge of the system                    =     0.0000 |e|
redata: Min. number of SCF Iter                     =        0
redata: Max. number of SCF Iter                     =      200
redata: SCF mix quantity                            = Hamiltonian
redata: Mix DM or H after convergence               =   F
redata: Recompute H after scf cycle                 =   F
redata: Mix DM in first SCF step                    =   T
redata: Write Pulay info on disk                    =   F
redata: New DM Mixing Weight                        =     0.1000
redata: New DM Occupancy tolerance                  = 0.000000000001
redata: No kicks to SCF
redata: DM Mixing Weight for Kicks                  =     0.5000
redata: Require Harris convergence for SCF          =   F
redata: Harris energy tolerance for SCF             =     0.000100 eV
redata: Require DM convergence for SCF              =   T
redata: DM tolerance for SCF                        =     0.0010
redata: Require EDM convergence for SCF             =   F
redata: EDM tolerance for SCF                       =     0.001000 eV
redata: Require H convergence for SCF               =   T
redata: Hamiltonian tolerance for SCF               =     0.001000 eV
redata: Require (free) Energy convergence for SCF   =   F
redata: (free) Energy tolerance for SCF             =     0.000100 eV
redata: Antiferro initial spin density              =   F
redata: Using Saved Data (generic)                  =   F
redata: Use continuation files for DM               =   F
redata: Neglect nonoverlap interactions             =   F
redata: Method of Calculation                       = Diagonalization
redata: Divide and Conquer                          =   T
redata: Electronic Temperature                      =   116.0444 K
redata: Fix the spin of the system                  =   F
redata: Dynamics option                             = Single-point calculation
mix.SCF: Pulay mixing                            = Pulay
mix.SCF:    Variant                              = stable
mix.SCF:    History steps                        = 3
mix.SCF:    Linear mixing weight                 =     0.100000
mix.SCF:    Mixing weight                        =     0.100000
mix.SCF:    SVD condition                        = 0.1000E-07
mix.SCF: Spin-component mixing                   all
redata: Save all siesta data in one NC              =   T
redata: NC compression level                        =        0
redata: ***********************************************************************

%block SCF.Mixers
  Pulay
%endblock SCF.Mixers

%block SCF.Mixer.Pulay
  # Mixing method
  method pulay
  variant stable

  # Mixing options
  weight 0.1000
  weight.linear 0.1000
  history 3
%endblock SCF.Mixer.Pulay

DM_history_depth set to one: no extrapolation allowed by default for geometry relaxation
Size of DM history Fstack: 1
Total number of electrons:     8.000000
Total ionic charge:     8.000000

* ProcessorY, Blocksize:    2   4

* Orbital distribution balance (max,min):     4     3

 Kpoints in:        35301 . Kpoints trimmed:        34461

siesta: k-grid: Number of k-points = 34461
siesta: k-grid: Cutoff (effective) =    50.953 Ang
siesta: k-grid: Supercell and displacements
siesta: k-grid:  -41 -41  41      0.000
siesta: k-grid:  -41   0  41      0.000
siesta: k-grid:    0   0  41      0.000

superc: Internal auxiliary supercell:     9 x     9 x    17  =    1377
superc: Number of atoms, orbitals, and projectors:   1377  20655  22032

                        Single-point calculation

superc: Internal auxiliary supercell:     9 x     9 x    17  =    1377
superc: Number of atoms, orbitals, and projectors:   1377  20655  22032

outcell: Unit cell vectors (Ang):
        2.870000    0.000000    0.000000
        0.000000    2.870000    0.000000
        1.435000    1.435000    1.435000

outcell: Cell vector modules (Ang)   :    2.870000    2.870000    2.485493
outcell: Cell angles (23,13,12) (deg):     54.7356     54.7356     90.0000
outcell: Cell volume (Ang**3)        :     11.8200
<dSpData1D:S at geom step 0
  <sparsity:sparsity for geom step 0
    nrows_g=15 nrows=4 sparsity=59.6444 nnzs=13420, refcount: 7>
  <dData1D:(new from dSpData1D) n=13420, refcount: 1>
refcount: 1>
new_DM -- step:     1
Initializing Density Matrix...
DM filled with atomic data:
<dSpData2D:DM initialized from atoms
  <sparsity:sparsity for geom step 0
    nrows_g=15 nrows=4 sparsity=59.6444 nnzs=13420, refcount: 8>
  <dData2D:DM n=13420 m=2, refcount: 1>
refcount: 1>

initDM: Initial spin polarization (Qup-Qdown) =    4.000000

No. of atoms with KB's overlaping orbs in proc 0. Max # of overlaps:      65     529
New grid distribution:   1
           1       1:   36    1:   18    1:   13
           2       1:   36    1:   18   14:   25
           3       1:   36   19:   36    1:   13
           4       1:   36   19:   36   14:   25

InitMesh: MESH =    72 x    72 x    50 =      259200
InitMesh: (bp) =    36 x    36 x    25 =       32400
InitMesh: Mesh cutoff (required, used) =  2000.000  2002.473 Ry
ExtMesh (bp) on 0 =   320 x   302 x   293 =    28315520
New grid distribution:   2
           1       1:   18    1:   18    1:   25
           2      19:   36    1:   18    1:   25
           3       1:   18   19:   36    1:   25
           4      19:   36   19:   36    1:   25
New grid distribution:   3
           1       1:   18    1:   18    1:   25
           2      19:   36    1:   18    1:   25
           3       1:   18   19:   36    1:   25
           4      19:   36   19:   36    1:   25
Setting up quadratic distribution...
ExtMesh (bp) on 0 =   302 x   302 x   305 =    27817220
PhiOnMesh: Number of (b)points on node 0 =                 8100
PhiOnMesh: nlist on node 0 =              1114309

stepf: Fermi-Dirac step function

siesta: Program's energy decomposition (eV):
siesta: Ebs     =       -80.507075
siesta: Eions   =       696.457142
siesta: Ena     =        22.811165
siesta: Ekin    =       825.412786
siesta: Enl     =      -524.767091
siesta: Eso     =         0.000000
siesta: Eldau   =         0.000000
siesta: DEna    =       -12.745421
siesta: DUscf   =         2.105633
siesta: DUext   =         0.000000
siesta: Exc     =      -412.031062
siesta: eta*DQ  =         0.000000
siesta: Emadel  =         0.000000
siesta: Emeta   =         0.000000
siesta: Emolmec =         0.000000
siesta: Ekinion =         0.000000
siesta: Eharris =      -791.049162
siesta: Etot    =      -795.671132
siesta: FreeEng =      -795.671492

SCF Convergence by DM+H criterion
max |DM_out - DM_in|         :     0.0000862395
max |H_out - H_in|      (eV) :     0.0008393251
SCF cycle converged after 16 iterations

Using DM_out to compute the final energy and forces
No. of atoms with KB's overlaping orbs in proc 0. Max # of overlaps:      65     529

siesta: E_KS(eV) =             -796.7914

siesta: E_KS - E_eggbox =      -796.7914

siesta: Atomic forces (eV/Ang):
   Tot    0.000000    0.000000   -0.000000
   Max    0.000000
   Res    0.000000    sqrt( Sum f_i^2 / 3N )
   Max    0.000000    constrained

Stress-tensor-Voigt (kbar):      -37.63      -37.63      -37.65        0.10       -0.06       -0.06
(Free)E + p*V (eV/cell)     -796.5141
Target enthalpy (eV/cell)     -796.7917

siesta: Program's energy decomposition (eV):
siesta: Ebs     =       -98.956846
siesta: Eions   =       696.457142
siesta: Ena     =        22.811165
siesta: Ekin    =       765.376720
siesta: Enl     =      -480.385989
siesta: Eso     =         0.000000
siesta: Eldau   =         0.000000
siesta: DEna    =        -4.648991
siesta: DUscf   =         0.293263
siesta: DUext   =         0.000000
siesta: Exc     =      -403.780387
siesta: eta*DQ  =         0.000000
siesta: Emadel  =         0.000000
siesta: Emeta   =         0.000000
siesta: Emolmec =         0.000000
siesta: Ekinion =         0.000000
siesta: Eharris =      -796.791360
siesta: Etot    =      -796.791360
siesta: FreeEng =      -796.791708

siesta: Final energy (eV):
siesta:  Band Struct. =     -98.956846
siesta:       Kinetic =     765.376720
siesta:       Hartree =      85.893492
siesta:       Eldau   =       0.000000
siesta:       Eso     =       0.000000
siesta:    Ext. field =       0.000000
siesta:   Exch.-corr. =    -403.780387
siesta:  Ion-electron =    -847.826905
siesta:       Ion-ion =    -396.454281
siesta:       Ekinion =       0.000000
siesta:         Total =    -796.791360
siesta:         Fermi =     -10.190126

siesta: Stress tensor (static) (eV/Ang**3):
siesta:    -0.023486    0.000062   -0.000038
siesta:     0.000062   -0.023486   -0.000038
siesta:    -0.000038   -0.000038   -0.023497

siesta: Cell volume =         11.819952 Ang**3

siesta: Pressure (static):
siesta:                Solid            Molecule  Units
siesta:           0.00025583          0.00025583  Ry/Bohr**3
siesta:           0.02348990          0.02348990  eV/Ang**3
siesta:          37.63537302         37.63537302  kBar
(Free)E+ p_basis*V_orbitals  =        -795.818107
(Free)Eharris+ p_basis*V_orbitals  =        -795.818107

siesta: Total spin polarization (Qup-Qdown) =    2.356467
>> End of run:  16-AUG-2017  20:27:41