reinit: Reading from standard input
reinit: Dumped input in INPUT_TMP.76653
************************** Dump of input data file ****************************
# $Id: Fe.fdf,v 1.1 1999/04/20 12:52:43 emilio Exp $
# FDF for bcc iron
#
# GGA, Ferromagnetic.
# Scalar-relativistic pseudopotential with non-linear partial-core correction
#
# E. Artacho, April 1999
SystemName       bcc Fe ferro GGA   # Descriptive name of the system
SystemLabel            Fe           # Short name for naming files
# Output options
CDF.Save true
WriteDMHS.NetCDF true
WriteCoorStep
WriteMullikenPop       1
# Species and atoms
NumberOfSpecies        1
NumberOfAtoms          2
%block ChemicalSpeciesLabel
  1  26  Fe
%endblock ChemicalSpeciesLabel
# Basis
PAO.EnergyShift       50 meV
PAO.BasisSize         DZP
LatticeConstant       2.87 Ang
%block LatticeVectors
 1.00000   0.000000  0.000000
 0.00000   1.000000  0.000000
 0.00000   0.000000  1.000000
%endblock LatticeVectors
KgridCutoff          15. Ang
%block BandLines
  1  0.00000   0.000000  0.000000  \Gamma
 40  2.00000   0.000000  0.000000  H
 28  1.00000   1.000000  0.000000  N
 28  0.00000   0.000000  0.000000  \Gamma
 34  1.00000   1.000000  1.000000  P
%endblock BandLines
xc.functional         GGA           # Exchange-correlation functional
xc.authors            PBE           # Exchange-correlation version
SpinPolarized         true          # Logical parameters are: yes or no
MeshCutoff           2000. Ry        # Mesh cutoff. real space mesh
# SCF options
MaxSCFIterations       40           # Maximum number of SCF iter
DM.MixingWeight       0.1           # New DM amount for next SCF cycle
DM.Tolerance          1.d-3         # Tolerance in maximum difference
                                    # between input and output DM
DM.UseSaveDM          true          # to use continuation files
DM.NumberPulay         3
SolutionMethod        diagon        # OrderN or Diagon
ElectronicTemperature  25 meV       # Temp. for Fermi smearing
SaveHS                true
# MD options
MD.TypeOfRun           cg           # Type of dynamics:
MD.NumCGsteps           0           # Number of CG steps for
                                    #   coordinate optimization
MD.MaxCGDispl          0.1 Ang      # Maximum atomic displacement
                                    #   in one CG step (Bohr)
MD.MaxForceTol         0.04 eV/Ang  # Tolerance in the maximum
                                    #   atomic force (Ry/Bohr)
# Atomic coordinates
AtomicCoordinatesFormat     Fractional
%block AtomicCoordinatesAndAtomicSpecies
  0.000000000000    0.000000000000    0.000000000000  1
  0.500000000000    0.500000000000    0.500000000000  1
%endblock AtomicCoordinatesAndAtomicSpecies
************************** End of input data file *****************************

reinit: -----------------------------------------------------------------------
reinit: System Name: bcc Fe ferro GGA
reinit: -----------------------------------------------------------------------
reinit: System Label: Fe
reinit: -----------------------------------------------------------------------
Siesta Version: siesta-4.1--719
Architecture  : x86_64-unknown-linux-gnu--Gfortran
Compiler flags: mpif90 -g -O2
PP flags      : -DMPI -DFC_HAVE_FLUSH -DFC_HAVE_ABORT -DCDF -DGRID_DP -DPHI_GRID_SP -DNCDF -DNCDF_4
Libraries     : -lnetcdff -lnetcdf -lpthread -lscalapack -lblacsF77init-openmpi -lblacsCinit-openmpi -lblacs-openmpi /usr/lib/lapack/liblapack.a -lblas
PARALLEL version
NetCDF support
NetCDF-4 support

>> Start of run:  23-JUL-2017  21:01:37

initatom: Reading input for the pseudopotentials and atomic orbitals ----------
Species number:   1 Atomic number:   26 Label: Fe

Ground state valence configuration:   4s02  3d06
Reading pseudopotential information in formatted form from Fe.psf

Pseudopotential generated from a relativistic atomic calculation
There are spin-orbit pseudopotentials available
Spin-orbit interaction is not included in this calculation

Valence configuration for pseudopotential generation:
4s( 2.00) rc: 2.00
4p( 0.00) rc: 2.00
3d( 6.00) rc: 2.00
4f( 0.00) rc: 2.00
For Fe, standard SIESTA heuristics set lmxkb to 3
 (one more than the basis l, including polarization orbitals).
Use PS.lmax or PS.KBprojectors blocks to override.

<basis_specs>
Fe                   Z=  26    Mass=  55.850        Charge= 0.17977+309
Lmxo=2 Lmxkb= 3    BasisType=split      Semic=F
L=0  Nsemic=0  Cnfigmx=4
          n=1  nzeta=2  polorb=1
            splnorm:   0.15000
               vcte:    0.0000
               rinn:    0.0000
               qcoe:    0.0000
               qyuk:    0.0000
               qwid:   0.10000E-01
                rcs:    0.0000      0.0000
            lambdas:    1.0000      1.0000
L=1  Nsemic=0  Cnfigmx=4
L=2  Nsemic=0  Cnfigmx=3
          n=1  nzeta=2  polorb=0
            splnorm:   0.15000
               vcte:    0.0000
               rinn:    0.0000
               qcoe:    0.0000
               qyuk:    0.0000
               qwid:   0.10000E-01
                rcs:    0.0000      0.0000
            lambdas:    1.0000      1.0000
L=0  Nkbl=1  erefs: 0.17977+309
L=1  Nkbl=1  erefs: 0.17977+309
L=2  Nkbl=1  erefs: 0.17977+309
L=3  Nkbl=1  erefs: 0.17977+309
</basis_specs>

atom: Called for Fe                    (Z =  26)

read_vps: Pseudopotential generation method:
read_vps: ATM3      Troullier-Martins
Total valence charge:    8.00000

read_vps: Pseudopotential includes a core correction:
read_vps: Pseudo-core for xc-correction

xc_check: Exchange-correlation functional:
xc_check: GGA Perdew, Burke & Ernzerhof 1996
V l=0 = -2*Zval/r beyond r=  2.7645
V l=1 = -2*Zval/r beyond r=  2.7645
V l=2 = -2*Zval/r beyond r=  2.7645
V l=3 = -2*Zval/r beyond r=  2.7645
All V_l potentials equal beyond r=  1.9726
This should be close to max(r_c) in ps generation
All pots = -2*Zval/r beyond r=  2.7645
Using large-core scheme for Vlocal

atom: Estimated core radius    2.76453
atom: Maximum radius for 4*pi*r*r*local-pseudopot. charge    3.05528
atom: Maximum radius for r*vlocal+2*Zval:    2.79930
GHOST: No ghost state for L =  0
GHOST: No ghost state for L =  1
GHOST: No ghost state for L =  2
GHOST: No ghost state for L =  3

KBgen: Kleinman-Bylander projectors:
   l= 0   rc=  2.047986   el= -0.388305   Ekb=  4.259322   kbcos=  0.262992
   l= 1   rc=  2.047986   el= -0.097543   Ekb=  2.850785   kbcos=  0.194191
   l= 2   rc=  2.022544   el= -0.553240   Ekb=-12.567334   kbcos= -0.683368
   l= 3   rc=  2.047986   el=  0.003178   Ekb= -1.649997   kbcos= -0.006611

KBgen: Total number of  Kleinman-Bylander projectors:   16
atom: -------------------------------------------------------------------------

atom: SANKEY-TYPE ORBITALS:
atom: Selected multiple-zeta basis: split

SPLIT: Orbitals with angular momentum L= 0

SPLIT: Basis orbitals for state 4s

SPLIT: PAO cut-off radius determined from an
SPLIT: energy shift=  0.003675 Ry

   izeta = 1
                 lambda =    1.000000
                     rc =    7.900226
                 energy =   -0.384972
                kinetic =    0.298275
    potential(screened) =   -0.683247
       potential(ionic) =   -5.926870

   izeta = 2
                 rmatch =    6.230074
              splitnorm =    0.150000
                 energy =   -0.335480
                kinetic =    0.475122
    potential(screened) =   -0.810602
       potential(ionic) =   -6.486439

SPLIT: Orbitals with angular momentum L= 2

SPLIT: Basis orbitals for state 3d

SPLIT: PAO cut-off radius determined from an
SPLIT: energy shift=  0.003675 Ry

   izeta = 1
                 lambda =    1.000000
                     rc =    4.791692
                 energy =   -0.550135
                kinetic =    9.305455
    potential(screened) =   -9.855590
       potential(ionic) =  -18.595674

   izeta = 2
                 rmatch =    2.235267
              splitnorm =    0.150000
                 energy =   -0.167120
                kinetic =   12.792829
    potential(screened) =  -12.959949
       potential(ionic) =  -22.329705

POLgen: Perturbative polarization orbital with L=  1

POLgen: Polarization orbital for state 4s

   izeta = 1
                     rc =    7.900226
                 energy =   -0.075468
                kinetic =    0.553297
    potential(screened) =   -0.628765
       potential(ionic) =   -5.432813
atom: Total number of Sankey-type orbitals: 15

atm_pop: Valence configuration (for local Pseudopot. screening):
 4s( 2.00)
 4p( 0.00)
 3d( 6.00)
Vna: chval, zval:    8.00000   8.00000

Vna:  Cut-off radius for the neutral-atom potential:   7.900226
comcore: Pseudo-core radius Rcore=  3.778693

atom: _________________________________________________________________________

prinput: Basis input ----------------------------------------------------------

PAO.BasisType split

%block ChemicalSpeciesLabel
    1   26 Fe                      # Species index, atomic number, species label
%endblock ChemicalSpeciesLabel

%block PAO.Basis                 # Define Basis set
Fe                    2                    # Species label, number of l-shells
 n=4   0   2 P   1                   # n, l, Nzeta, Polarization, NzetaPol
   7.900      6.230
   1.000      1.000
 n=3   2   2                         # n, l, Nzeta
   4.792      2.235
   1.000      1.000
%endblock PAO.Basis

prinput: ----------------------------------------------------------------------

Dumping basis to NetCDF file Fe.ion.nc
coor:   Atomic-coordinates input format  =     Fractional

siesta: Atomic coordinates (Bohr) and species
siesta:      0.00000   0.00000   0.00000  1        1
siesta:      2.71176   2.71176   2.71176  1        2

siesta: System type = bulk

initatomlists: Number of atoms, orbitals, and projectors:      2    30    32

siesta: ******************** Simulation parameters ****************************
siesta:
siesta: The following are some of the parameters of the simulation.
siesta: A complete list of the parameters used, including default values,
siesta: can be found in file out.fdf
siesta:
redata: Spin configuration                          = collinear
redata: Number of spin components                   = 2
redata: Time-Reversal Symmetry                      = T
redata: Spin-spiral                                 = F
redata: Long output                                 =   F
redata: Number of Atomic Species                    =        1
redata: Charge density info will appear in .RHO file
redata: Write Mulliken Pop.                         = Atomic and Orbital charges
redata: Mesh Cutoff                                 =  2000.0000 Ry
redata: Net charge of the system                    =     0.0000 |e|
redata: Min. number of SCF Iter                     =        0
redata: Max. number of SCF Iter                     =       40
redata: SCF mix quantity                            = Hamiltonian
redata: Mix DM or H after convergence               =   F
redata: Recompute H after scf cycle                 =   F
redata: Mix DM in first SCF step                    =   T
redata: Write Pulay info on disk                    =   F
redata: New DM Mixing Weight                        =     0.1000
redata: New DM Occupancy tolerance                  = 0.000000000001
redata: No kicks to SCF
redata: DM Mixing Weight for Kicks                  =     0.5000
redata: Require Harris convergence for SCF          =   F
redata: Harris energy tolerance for SCF             =     0.000100 eV
redata: Require DM convergence for SCF              =   T
redata: DM tolerance for SCF                        =     0.0010
redata: Require EDM convergence for SCF             =   F
redata: EDM tolerance for SCF                       =     0.001000 eV
redata: Require H convergence for SCF               =   T
redata: Hamiltonian tolerance for SCF               =     0.001000 eV
redata: Require (free) Energy convergence for SCF   =   F
redata: (free) Energy tolerance for SCF             =     0.000100 eV
redata: Antiferro initial spin density              =   F
redata: Using Saved Data (generic)                  =   F
redata: Use continuation files for DM               =   T
redata: Neglect nonoverlap interactions             =   F
redata: Method of Calculation                       = Diagonalization
redata: Divide and Conquer                          =   T
redata: Electronic Temperature                      =   290.1109 K
redata: Fix the spin of the system                  =   F
redata: Dynamics option                             = Single-point calculation
mix.SCF: Pulay mixing                            = Pulay
mix.SCF:    Variant                              = stable
mix.SCF:    History steps                        = 3
mix.SCF:    Linear mixing weight                 =     0.100000
mix.SCF:    Mixing weight                        =     0.100000
mix.SCF:    SVD condition                        = 0.1000E-07
mix.SCF: Spin-component mixing                   all
redata: Save all siesta data in one NC              =   T
redata: NC compression level                        =        0
redata: ***********************************************************************

%block SCF.Mixers
  Pulay
%endblock SCF.Mixers

%block SCF.Mixer.Pulay
  # Mixing method
  method pulay
  variant stable

  # Mixing options
  weight 0.1000
  weight.linear 0.1000
  history 3
%endblock SCF.Mixer.Pulay

DM_history_depth set to one: no extrapolation allowed by default for geometry relaxation
Size of DM history Fstack: 1
Total number of electrons:    16.000000
Total ionic charge:    16.000000

* ProcessorY, Blocksize:    2   8

* Orbital distribution balance (max,min):     8     6

 Kpoints in:          726 . Kpoints trimmed:          666

siesta: k-grid: Number of k-points =   666
siesta: k-grid: Cutoff (effective) =    15.785 Ang
siesta: k-grid: Supercell and displacements
siesta: k-grid:    0  11   0      0.000
siesta: k-grid:    0   0  11      0.000
siesta: k-grid:   11   0   0      0.000
Using LatticeConstant from fdf file for BandLinesScale:    5.423516 Bohr
Beware any cell changes by the end of the run
Using LatticeConstant from fdf file for BandLinesScale:    5.423516 Bohr
Beware any cell changes by the end of the run

superc: Internal auxiliary supercell:     7 x     7 x     7  =     343
superc: Number of atoms, orbitals, and projectors:    686  10290  10976

                        Single-point calculation

outcoor: Atomic coordinates (fractional):
    0.00000000    0.00000000    0.00000000   1       1  Fe
    0.50000000    0.50000000    0.50000000   1       2  Fe

superc: Internal auxiliary supercell:     7 x     7 x     7  =     343
superc: Number of atoms, orbitals, and projectors:    686  10290  10976

outcell: Unit cell vectors (Ang):
        2.870000    0.000000    0.000000
        0.000000    2.870000    0.000000
        0.000000    0.000000    2.870000

outcell: Cell vector modules (Ang)   :    2.870000    2.870000    2.870000
outcell: Cell angles (23,13,12) (deg):     90.0000     90.0000     90.0000
outcell: Cell volume (Ang**3)        :     23.6399
<dSpData1D:S at geom step 0
  <sparsity:sparsity for geom step 0
    nrows_g=30 nrows=8 sparsity=12.1089 nnzs=10898, refcount: 7>
  <dData1D:(new from dSpData1D) n=10898, refcount: 1>
refcount: 1>
new_DM -- step:     1
Initializing Density Matrix...

Attempting to read DM from file... Failed...
DM filled with atomic data:
<dSpData2D:DM initialized from atoms
  <sparsity:sparsity for geom step 0
    nrows_g=30 nrows=8 sparsity=12.1089 nnzs=10898, refcount: 8>
  <dData2D:DM n=10898 m=2, refcount: 1>
refcount: 1>

initDM: Initial spin polarization (Qup-Qdown) =    8.000000

No. of atoms with KB's overlaping orbs in proc 0. Max # of overlaps:      59     343
New grid distribution:   1
           1       1:   40    1:   20    1:   20
           2       1:   40    1:   20   21:   40
           3       1:   40   21:   40    1:   20
           4       1:   40   21:   40   21:   40

InitMesh: MESH =    80 x    80 x    80 =      512000
InitMesh: (bp) =    40 x    40 x    40 =       64000
InitMesh: Mesh cutoff (required, used) =  2000.000  2147.424 Ry
ExtMesh (bp) on 0 =   276 x   256 x   256 =    18087936
New grid distribution:   2
           1       1:   40    1:   20    1:   20
           2       1:   40    1:   20   21:   40
           3       1:   40   21:   40    1:   20
           4       1:   40   21:   40   21:   40
New grid distribution:   3
           1       1:   40    1:   20    1:   20
           2       1:   40    1:   20   21:   40
           3       1:   40   21:   40    1:   20
           4       1:   40   21:   40   21:   40
Setting up quadratic distribution...
ExtMesh (bp) on 0 =   276 x   256 x   256 =    18087936
PhiOnMesh: Number of (b)points on node 0 =                16000
PhiOnMesh: nlist on node 0 =              2424839

stepf: Fermi-Dirac step function

siesta: Program's energy decomposition (eV):
siesta: Ebs     =      -172.029309
siesta: Eions   =      1423.902821
siesta: Ena     =        44.602914
siesta: Ekin    =      1517.311460
siesta: Enl     =      -928.941779
siesta: Eso     =         0.000000
siesta: Eldau   =         0.000000
siesta: DEna    =         5.480537
siesta: DUscf   =         0.220924
siesta: DUext   =         0.000000
siesta: Exc     =      -778.878013
siesta: eta*DQ  =         0.000000
siesta: Emadel  =         0.000000
siesta: Emeta   =         0.000000
siesta: Emolmec =         0.000000
siesta: Ekinion =         0.000000
siesta: Eharris =     -1561.595305
siesta: Etot    =     -1564.106779
siesta: FreeEng =     -1564.110440

SCF Convergence by DM+H criterion
max |DM_out - DM_in|         :     0.0003714806
max |H_out - H_in|      (eV) :     0.0008434248
SCF cycle converged after 19 iterations

Using DM_out to compute the final energy and forces
No. of atoms with KB's overlaping orbs in proc 0. Max # of overlaps:      59     343

siesta: E_KS(eV) =            -1564.4107

siesta: E_KS - E_eggbox =     -1564.4107

siesta: Atomic forces (eV/Ang):
   Tot   -0.000000    0.000000   -0.000000
   Max    0.000000
   Res    0.000000    sqrt( Sum f_i^2 / 3N )
   Max    0.000000    constrained

Stress-tensor-Voigt (kbar):      -27.57      -27.57      -27.57       -0.00        0.00       -0.00
(Free)E + p*V (eV/cell)    -1564.0087
Target enthalpy (eV/cell)    -1564.4156

mulliken: Atomic and Orbital Populations:

mulliken: Spin UP

Species: Fe
Atom  Qatom  Qorb
   1  5.156  -0.429   0.695   0.903   0.903   0.977   0.903   0.977  -0.029
             -0.029  -0.029  -0.029  -0.029   0.124   0.124   0.124
   2  5.156  -0.429   0.695   0.903   0.903   0.977   0.903   0.977  -0.029
             -0.029  -0.029  -0.029  -0.029   0.124   0.124   0.124

mulliken: Qtot =       10.312

mulliken: Spin DOWN

Species: Fe
Atom  Qatom  Qorb
   1  2.844  -0.570   0.845   0.542   0.542   0.351   0.542   0.351  -0.050
             -0.050  -0.049  -0.050  -0.049   0.163   0.163   0.163
   2  2.844  -0.570   0.845   0.542   0.542   0.351   0.542   0.351  -0.050
             -0.050  -0.049  -0.050  -0.049   0.163   0.163   0.163

mulliken: Qtot =        5.688
Computing bands...

siesta: Program's energy decomposition (eV):
siesta: Ebs     =      -164.109982
siesta: Eions   =      1423.902821
siesta: Ena     =        44.602914
siesta: Ekin    =      1541.383649
siesta: Enl     =      -947.665435
siesta: Eso     =         0.000000
siesta: Eldau   =         0.000000
siesta: DEna    =         2.079060
siesta: DUscf   =         0.055507
siesta: DUext   =         0.000000
siesta: Exc     =      -780.963601
siesta: eta*DQ  =         0.000000
siesta: Emadel  =         0.000000
siesta: Emeta   =         0.000000
siesta: Emolmec =         0.000000
siesta: Ekinion =         0.000000
siesta: Eharris =     -1564.410736
siesta: Etot    =     -1564.410726
siesta: FreeEng =     -1564.415605

siesta: Final energy (eV):
siesta:  Band Struct. =    -164.109982
siesta:       Kinetic =    1541.383649
siesta:       Hartree =     172.671390
siesta:       Eldau   =       0.000000
siesta:       Eso     =       0.000000
siesta:    Ext. field =       0.000000
siesta:   Exch.-corr. =    -780.963601
siesta:  Ion-electron =   -1673.266231
siesta:       Ion-ion =    -824.235933
siesta:       Ekinion =       0.000000
siesta:         Total =   -1564.410726
siesta:         Fermi =      -8.056694

siesta: Stress tensor (static) (eV/Ang**3):
siesta:    -0.017211   -0.000000   -0.000000
siesta:    -0.000000   -0.017211    0.000000
siesta:    -0.000000    0.000000   -0.017211

siesta: Cell volume =         23.639903 Ang**3

siesta: Pressure (static):
siesta:                Solid            Molecule  Units
siesta:           0.00018745          0.00018745  Ry/Bohr**3
siesta:           0.01721064          0.01721064  eV/Ang**3
siesta:          27.57478431         27.57478431  kBar
(Free)E+ p_basis*V_orbitals  =       -1562.324861
(Free)Eharris+ p_basis*V_orbitals  =       -1562.324871

siesta: Total spin polarization (Qup-Qdown) =    4.624379
>> End of run:  23-JUL-2017  21:05:36